NAME : 10_3_3_3_(14).dat
COMMENT : Henke, Speranza, Wäscher, 2015
TYPE : MCVRP
DIMENSION : 11
EDGE_WEIGHT_TYPE : DISTANCE_MATRIX
CAPACITY : 1000
VEHICLES : 2
PRODUCT TYPES : 3
COMPARTMENTS : 3
NODE_COORD_SECTION
1 50 50
2 94.4 4.78
3 54.79 93.78
4 27.02 31.56
5 27.55 19.86
6 2.86 44.49
7 51.23 91.18
8 40.44 38.73
9 15.4 9.86
10 38.18 32.79
11 53.16 87.02
DEMAND_SECTION
1 0 0 0
2 98 9 15
3 59 42 57
4 111 9 35
5 68 103 24
6 119 43 21
7 16 44 27
8 65 39 0
9 5 63 35
10 109 31 2
11 2 7 45
DEPOT_SECTION
1
EOF